12° run output:
{
    "Function": "euclidA300.tsp",
    "Problem dimension": [
        246,
        146,
        76,
        197,
        66,
        106,
        263,
        293,
        180,
        53,
        160,
        252,
        161,
        158,
        296,
        183,
        299,
        125,
        190,
        95,
        118,
        211,
        217,
        0,
        122,
        38,
        82,
        276,
        90,
        93,
        153,
        218,
        181,
        13,
        10,
        113,
        214,
        233,
        195,
        167,
        264,
        228,
        29,
        168,
        177,
        99,
        238,
        83,
        287,
        201,
        249,
        36,
        85,
        11,
        169,
        227,
        27,
        145,
        156,
        45,
        163,
        292,
        226,
        108,
        58,
        186,
        56,
        91,
        207,
        202,
        269,
        260,
        210,
        78,
        170,
        162,
        268,
        80,
        18,
        102,
        50,
        261,
        141,
        9,
        215,
        222,
        223,
        48,
        65,
        275,
        89,
        5,
        187,
        62,
        64,
        40,
        2,
        229,
        26,
        33,
        144,
        75,
        297,
        44,
        140,
        135,
        291,
        112,
        194,
        60,
        94,
        1,
        267,
        86,
        283,
        12,
        105,
        189,
        173,
        8,
        22,
        67,
        149,
        109,
        288,
        235,
        212,
        244,
        3,
        79,
        248,
        136,
        270,
        52,
        271,
        138,
        203,
        155,
        285,
        279,
        290,
        72,
        20,
        152,
        179,
        132,
        216,
        117,
        15,
        4,
        137,
        63,
        126,
        61,
        42,
        25,
        208,
        111,
        68,
        204,
        165,
        237,
        114,
        164,
        188,
        250,
        17,
        172,
        119,
        159,
        273,
        266,
        54,
        49,
        39,
        230,
        131,
        47,
        24,
        236,
        295,
        74,
        110,
        185,
        289,
        121,
        28,
        254,
        130,
        281,
        70,
        255,
        286,
        231,
        142,
        239,
        259,
        193,
        16,
        143,
        133,
        225,
        21,
        242,
        209,
        104,
        19,
        196,
        97,
        92,
        257,
        51,
        256,
        31,
        120,
        175,
        37,
        55,
        265,
        124,
        262,
        277,
        205,
        6,
        224,
        81,
        272,
        98,
        243,
        154,
        150,
        41,
        14,
        174,
        178,
        127,
        88,
        282,
        240,
        247,
        182,
        219,
        245,
        206,
        192,
        221,
        59,
        30,
        298,
        232,
        116,
        57,
        107,
        129,
        115,
        294,
        213,
        280,
        69,
        71,
        35,
        220,
        32,
        198,
        73,
        200,
        7,
        84,
        171,
        77,
        157,
        253,
        278,
        134,
        184,
        103,
        234,
        101,
        43,
        274,
        128,
        123,
        176,
        147,
        96,
        199,
        148,
        284,
        251,
        139,
        258,
        191,
        34,
        87,
        100,
        166,
        241,
        46,
        151,
        23
    ],
    "Global Optimum": 0,
    "Algorithm": "Genetic algorithm",
    "Parameters": {
        "population": 30,
        "offspring": 30,
        "mutation probability": 0.0033333333333333335,
        "crossover probability": 0.9
    },
    "Fitness": 274963,
    "Solution": [
        246,
        146,
        76,
        197,
        66,
        106,
        263,
        293,
        180,
        53,
        160,
        252,
        161,
        158,
        296,
        183,
        299,
        125,
        190,
        95,
        118,
        211,
        217,
        0,
        122,
        38,
        82,
        276,
        90,
        93,
        153,
        218,
        181,
        13,
        10,
        113,
        214,
        233,
        195,
        167,
        264,
        228,
        29,
        168,
        177,
        99,
        238,
        83,
        287,
        201,
        249,
        36,
        85,
        11,
        169,
        227,
        27,
        145,
        156,
        45,
        163,
        292,
        226,
        108,
        58,
        186,
        56,
        91,
        207,
        202,
        269,
        260,
        210,
        78,
        170,
        162,
        268,
        80,
        18,
        102,
        50,
        261,
        141,
        9,
        215,
        222,
        223,
        48,
        65,
        275,
        89,
        5,
        187,
        62,
        64,
        40,
        2,
        229,
        26,
        33,
        144,
        75,
        297,
        44,
        140,
        135,
        291,
        112,
        194,
        60,
        94,
        1,
        267,
        86,
        283,
        12,
        105,
        189,
        173,
        8,
        22,
        67,
        149,
        109,
        288,
        235,
        212,
        244,
        3,
        79,
        248,
        136,
        270,
        52,
        271,
        138,
        203,
        155,
        285,
        279,
        290,
        72,
        20,
        152,
        179,
        132,
        216,
        117,
        15,
        4,
        137,
        63,
        126,
        61,
        42,
        25,
        208,
        111,
        68,
        204,
        165,
        237,
        114,
        164,
        188,
        250,
        17,
        172,
        119,
        159,
        273,
        266,
        54,
        49,
        39,
        230,
        131,
        47,
        24,
        236,
        295,
        74,
        110,
        185,
        289,
        121,
        28,
        254,
        130,
        281,
        70,
        255,
        286,
        231,
        142,
        239,
        259,
        193,
        16,
        143,
        133,
        225,
        21,
        242,
        209,
        104,
        19,
        196,
        97,
        92,
        257,
        51,
        256,
        31,
        120,
        175,
        37,
        55,
        265,
        124,
        262,
        277,
        205,
        6,
        224,
        81,
        272,
        98,
        243,
        154,
        150,
        41,
        14,
        174,
        178,
        127,
        88,
        282,
        240,
        247,
        182,
        219,
        245,
        206,
        192,
        221,
        59,
        30,
        298,
        232,
        116,
        57,
        107,
        129,
        115,
        294,
        213,
        280,
        69,
        71,
        35,
        220,
        32,
        198,
        73,
        200,
        7,
        84,
        171,
        77,
        157,
        253,
        278,
        134,
        184,
        103,
        234,
        101,
        43,
        274,
        128,
        123,
        176,
        147,
        96,
        199,
        148,
        284,
        251,
        139,
        258,
        191,
        34,
        87,
        100,
        166,
        241,
        46,
        151,
        23
    ],
    "Nb of functions evaluations": 400020,
    "Computational time in seconds": 692.3699672222137,
    "Stopping criterion in evaluations": 400000
}